Welcome to the CBC MILP Solver 
Version: 2.10.7 
Build Date: Feb 14 2022 

command line - cbc inputs/new_no_tr/order/triang8_4_default_input.lp sec 1800 solve solu solutions/new_no_tr/triang8_4_default_input.lp (default strategy 1)
seconds was changed from 1e+100 to 1800
Continuous objective value is 229.075 - 0.56 seconds
Cgl0002I 155 variables fixed
Cgl0003I 0 fixed, 18 tightened bounds, 1053 strengthened rows, 0 substitutions
Cgl0003I 0 fixed, 23 tightened bounds, 435 strengthened rows, 0 substitutions
Cgl0003I 0 fixed, 17 tightened bounds, 241 strengthened rows, 0 substitutions
Cgl0003I 0 fixed, 14 tightened bounds, 68 strengthened rows, 0 substitutions
Cgl0003I 0 fixed, 8 tightened bounds, 34 strengthened rows, 0 substitutions
Cgl0003I 0 fixed, 5 tightened bounds, 17 strengthened rows, 0 substitutions
Cgl0003I 0 fixed, 2 tightened bounds, 7 strengthened rows, 0 substitutions
Cgl0003I 0 fixed, 1 tightened bounds, 3 strengthened rows, 0 substitutions
Cgl0003I 0 fixed, 2 tightened bounds, 1 strengthened rows, 0 substitutions
Cgl0004I processed model has 4764 rows, 1627 columns (1627 integer (1590 of which binary)) and 16220 elements
Cutoff increment increased from 1e-05 to 0.9999
Cbc0045I 1 integer variables out of 1627 objects (1627 integer) have cost of 1 - high priority
Cbc0045I branch on satisfied Y create fake objective Y random cost Y
Cbc0038I Initial state - 859 integers unsatisfied sum - 264.668
Cbc0038I Pass   1: (1.61 seconds) suminf.  128.28688 (599) obj. 326.473 iterations 2329
Cbc0038I Pass   2: (1.84 seconds) suminf.   89.29145 (519) obj. 405.892 iterations 1415
Cbc0038I Pass   3: (1.98 seconds) suminf.   79.66208 (438) obj. 417.07 iterations 902
Cbc0038I Pass   4: (2.07 seconds) suminf.   70.76962 (431) obj. 413.537 iterations 537
Cbc0038I Pass   5: (2.13 seconds) suminf.   68.98036 (428) obj. 411.606 iterations 370
Cbc0038I Pass   6: (2.20 seconds) suminf.   67.73669 (442) obj. 422.995 iterations 393
Cbc0038I Pass   7: (2.26 seconds) suminf.   66.48200 (428) obj. 421.951 iterations 321
Cbc0038I Pass   8: (2.27 seconds) suminf.   64.94628 (429) obj. 419.157 iterations 66
Cbc0038I Pass   9: (2.31 seconds) suminf.   62.80193 (431) obj. 428.88 iterations 166
Cbc0038I Pass  10: (2.32 seconds) suminf.   63.23813 (421) obj. 430.22 iterations 56
Cbc0038I Pass  11: (2.37 seconds) suminf.   60.57445 (376) obj. 433.406 iterations 266
Cbc0038I Pass  12: (2.39 seconds) suminf.   59.87752 (404) obj. 435.581 iterations 77
Cbc0038I Pass  13: (2.40 seconds) suminf.   59.32888 (409) obj. 435.728 iterations 42
Cbc0038I Pass  14: (2.45 seconds) suminf.   56.73115 (357) obj. 444.174 iterations 306
Cbc0038I Pass  15: (2.51 seconds) suminf.   54.81511 (338) obj. 446.589 iterations 372
Cbc0038I Pass  16: (2.53 seconds) suminf.   55.05842 (323) obj. 450.392 iterations 114
Cbc0038I Pass  17: (2.57 seconds) suminf.   53.26837 (342) obj. 445.175 iterations 256
Cbc0038I Pass  18: (2.59 seconds) suminf.   53.49492 (346) obj. 448.563 iterations 64
Cbc0038I Pass  19: (2.64 seconds) suminf.   48.45848 (323) obj. 448.844 iterations 336
Cbc0038I Pass  20: (2.66 seconds) suminf.   47.86094 (331) obj. 448.519 iterations 132
Cbc0038I Pass  21: (2.75 seconds) suminf.   44.45094 (302) obj. 457.624 iterations 628
Cbc0038I Pass  22: (2.78 seconds) suminf.   41.19460 (336) obj. 463.444 iterations 143
Cbc0038I Pass  23: (2.81 seconds) suminf.   41.35943 (323) obj. 460.164 iterations 200
Cbc0038I Pass  24: (2.90 seconds) suminf.   29.75969 (300) obj. 636.798 iterations 629
Cbc0038I Pass  25: (2.94 seconds) suminf.   28.40126 (248) obj. 648.672 iterations 217
Cbc0038I Pass  26: (2.95 seconds) suminf.   28.15284 (248) obj. 660.056 iterations 61
Cbc0038I Pass  27: (3.00 seconds) suminf.   27.98973 (246) obj. 615.901 iterations 360
Cbc0038I Pass  28: (3.03 seconds) suminf.   26.29686 (245) obj. 615.709 iterations 181
Cbc0038I Pass  29: (3.04 seconds) suminf.   26.56290 (237) obj. 615.749 iterations 55
Cbc0038I Pass  30: (3.11 seconds) suminf.   27.74614 (220) obj. 594.204 iterations 464
Cbc0038I Pass  31: (3.14 seconds) suminf.   22.74821 (258) obj. 602.965 iterations 234
Cbc0038I Pass  32: (3.16 seconds) suminf.   22.23418 (243) obj. 602.961 iterations 76
Cbc0038I Pass  33: (3.21 seconds) suminf.   17.40599 (216) obj. 528.014 iterations 420
Cbc0038I Pass  34: (3.24 seconds) suminf.   17.97160 (221) obj. 528.31 iterations 154
Cbc0038I Pass  35: (3.28 seconds) suminf.   17.06644 (185) obj. 531.76 iterations 337
Cbc0038I Pass  36: (3.32 seconds) suminf.   16.94021 (208) obj. 528.911 iterations 316
Cbc0038I Pass  37: (3.38 seconds) suminf.   16.58854 (182) obj. 531.007 iterations 458
Cbc0038I Pass  38: (3.43 seconds) suminf.   14.76016 (199) obj. 527.363 iterations 424
Cbc0038I Pass  39: (3.53 seconds) suminf.   14.86837 (177) obj. 529.184 iterations 838
Cbc0038I Pass  40: (3.56 seconds) suminf.   13.00082 (189) obj. 529.184 iterations 166
Cbc0038I Pass  41: (3.60 seconds) suminf.    9.07704 (154) obj. 529.278 iterations 368
Cbc0038I Pass  42: (3.61 seconds) suminf.    9.02790 (151) obj. 529.334 iterations 46
Cbc0038I Pass  43: (3.67 seconds) suminf.   11.80811 (142) obj. 529.076 iterations 547
Cbc0038I Pass  44: (3.68 seconds) suminf.   10.75226 (140) obj. 529.35 iterations 84
Cbc0038I Pass  45: (3.79 seconds) suminf.    6.93856 (79) obj. 529.115 iterations 814
Cbc0038I Pass  46: (3.81 seconds) suminf.    4.74799 (69) obj. 529.342 iterations 155
Cbc0038I Pass  47: (3.84 seconds) suminf.    9.97613 (85) obj. 526.046 iterations 253
Cbc0038I Pass  48: (3.86 seconds) suminf.    4.24094 (64) obj. 527.123 iterations 156
Cbc0038I Pass  49: (3.88 seconds) suminf.    7.32291 (83) obj. 525.511 iterations 160
Cbc0038I Pass  50: (3.90 seconds) suminf.    2.69665 (64) obj. 527.123 iterations 126
Cbc0038I Pass  51: (3.91 seconds) suminf.    2.60378 (76) obj. 527.123 iterations 44
Cbc0038I Pass  52: (3.95 seconds) suminf.   10.69753 (74) obj. 520 iterations 337
Cbc0038I Pass  53: (3.96 seconds) suminf.   10.17231 (83) obj. 520 iterations 23
Cbc0038I Pass  54: (3.99 seconds) suminf.    3.92460 (50) obj. 520 iterations 175
Cbc0038I Pass  55: (3.99 seconds) suminf.    3.76046 (51) obj. 520 iterations 6
Cbc0038I Pass  56: (4.01 seconds) suminf.    0.00000 (0) obj. 520 iterations 70
Cbc0038I Solution found of 520
Cbc0038I Cleaned solution of 520
Cbc0038I Before mini branch and bound, 402 integers at bound fixed and 0 continuous
Cbc0038I Mini branch and bound did not improve solution (4.05 seconds)
Cbc0038I Round again with cutoff of 490.008
Cbc0038I Pass  57: (4.05 seconds) suminf.  128.28688 (599) obj. 326.473 iterations 0
Cbc0038I Pass  58: (4.23 seconds) suminf.   89.29145 (519) obj. 405.892 iterations 1109
Cbc0038I Pass  59: (4.34 seconds) suminf.   79.66208 (438) obj. 417.07 iterations 734
Cbc0038I Pass  60: (4.41 seconds) suminf.   70.76962 (431) obj. 413.537 iterations 446
Cbc0038I Pass  61: (4.47 seconds) suminf.   68.98036 (428) obj. 411.606 iterations 317
Cbc0038I Pass  62: (4.52 seconds) suminf.   67.73669 (442) obj. 422.995 iterations 274
Cbc0038I Pass  63: (4.57 seconds) suminf.   66.48200 (428) obj. 421.951 iterations 310
Cbc0038I Pass  64: (4.59 seconds) suminf.   64.94628 (429) obj. 419.157 iterations 94
Cbc0038I Pass  65: (4.62 seconds) suminf.   62.80193 (431) obj. 428.88 iterations 139
Cbc0038I Pass  66: (4.63 seconds) suminf.   63.23813 (421) obj. 430.22 iterations 51
Cbc0038I Pass  67: (4.68 seconds) suminf.   60.95584 (372) obj. 437.54 iterations 269
Cbc0038I Pass  68: (4.69 seconds) suminf.   60.69107 (391) obj. 440.17 iterations 56
Cbc0038I Pass  69: (4.75 seconds) suminf.   58.06180 (364) obj. 443.716 iterations 405
Cbc0038I Pass  70: (4.80 seconds) suminf.   55.04834 (334) obj. 449.044 iterations 286
Cbc0038I Pass  71: (4.85 seconds) suminf.   50.92634 (348) obj. 451.448 iterations 336
Cbc0038I Pass  72: (4.86 seconds) suminf.   50.92233 (359) obj. 450.625 iterations 33
Cbc0038I Pass  73: (4.87 seconds) suminf.   50.23618 (344) obj. 449.225 iterations 84
Cbc0038I Pass  74: (4.89 seconds) suminf.   49.65732 (344) obj. 449.049 iterations 51
Cbc0038I Pass  75: (4.91 seconds) suminf.   45.88070 (340) obj. 451.124 iterations 145
Cbc0038I Pass  76: (4.92 seconds) suminf.   45.83911 (342) obj. 451.073 iterations 11
Cbc0038I Pass  77: (4.96 seconds) suminf.   45.47798 (323) obj. 451.233 iterations 222
Cbc0038I Pass  78: (4.97 seconds) suminf.   45.38978 (314) obj. 450.244 iterations 78
Cbc0038I Pass  79: (5.02 seconds) suminf.   37.06123 (271) obj. 461.258 iterations 386
Cbc0038I Pass  80: (5.05 seconds) suminf.   36.22615 (267) obj. 462.63 iterations 183
Cbc0038I Pass  81: (5.10 seconds) suminf.   33.29303 (297) obj. 486.448 iterations 331
Cbc0038I Pass  82: (5.12 seconds) suminf.   33.15889 (291) obj. 489.375 iterations 105
Cbc0038I Pass  83: (5.17 seconds) suminf.   29.64637 (257) obj. 490.008 iterations 379
Cbc0038I Pass  84: (5.19 seconds) suminf.   29.04737 (263) obj. 490.008 iterations 96
Cbc0038I Pass  85: (5.26 seconds) suminf.   29.22165 (239) obj. 490.008 iterations 594
Cbc0038I Pass  86: (5.31 seconds) suminf.   25.08670 (242) obj. 490.008 iterations 353
Cbc0038I Pass  87: (5.33 seconds) suminf.   24.72252 (240) obj. 490.008 iterations 80
Cbc0038I Pass  88: (5.37 seconds) suminf.   23.35407 (217) obj. 490.008 iterations 315
Cbc0038I Pass  89: (5.39 seconds) suminf.   21.56135 (217) obj. 490.008 iterations 125
Cbc0038I Pass  90: (5.43 seconds) suminf.   21.47065 (222) obj. 490.008 iterations 323
Cbc0038I Pass  91: (5.45 seconds) suminf.   20.52912 (213) obj. 490.008 iterations 127
Cbc0038I Pass  92: (5.52 seconds) suminf.   22.15783 (202) obj. 490.008 iterations 603
Cbc0038I Pass  93: (5.55 seconds) suminf.   20.35913 (206) obj. 490.008 iterations 190
Cbc0038I Pass  94: (5.59 seconds) suminf.   18.69302 (212) obj. 490.008 iterations 283
Cbc0038I Pass  95: (5.63 seconds) suminf.   18.03863 (209) obj. 490.008 iterations 333
Cbc0038I Pass  96: (5.64 seconds) suminf.   17.26319 (204) obj. 490.008 iterations 65
Cbc0038I Pass  97: (5.68 seconds) suminf.   13.84290 (132) obj. 490.008 iterations 340
Cbc0038I Pass  98: (5.69 seconds) suminf.   12.70621 (140) obj. 490.008 iterations 40
Cbc0038I Pass  99: (5.69 seconds) suminf.   12.70621 (140) obj. 490.008 iterations 5
Cbc0038I Pass 100: (5.72 seconds) suminf.   10.01292 (129) obj. 490.008 iterations 196
Cbc0038I Pass 101: (5.72 seconds) suminf.   10.01292 (129) obj. 490.008 iterations 24
Cbc0038I Pass 102: (5.78 seconds) suminf.    9.46673 (101) obj. 490.008 iterations 505
Cbc0038I Pass 103: (5.80 seconds) suminf.    7.59013 (119) obj. 490.008 iterations 157
Cbc0038I Pass 104: (5.97 seconds) suminf.    5.88425 (83) obj. 490.008 iterations 1487
Cbc0038I Pass 105: (6.00 seconds) suminf.    5.47248 (93) obj. 490.008 iterations 153
Cbc0038I Pass 106: (6.04 seconds) suminf.    7.19987 (126) obj. 490.008 iterations 342
Cbc0038I Pass 107: (6.05 seconds) suminf.    5.70043 (122) obj. 490.008 iterations 60
Cbc0038I Pass 108: (6.20 seconds) suminf.    4.62447 (46) obj. 490.008 iterations 1216
Cbc0038I Pass 109: (6.23 seconds) suminf.    2.26362 (29) obj. 490.008 iterations 189
Cbc0038I Pass 110: (6.28 seconds) suminf.    3.64844 (54) obj. 490.008 iterations 324
Cbc0038I Pass 111: (6.29 seconds) suminf.    3.61900 (55) obj. 490.008 iterations 44
Cbc0038I Pass 112: (6.33 seconds) suminf.    4.95566 (64) obj. 490.008 iterations 277
Cbc0038I Pass 113: (6.34 seconds) suminf.    4.69571 (60) obj. 490.008 iterations 75
Cbc0038I Pass 114: (6.37 seconds) suminf.    7.17796 (77) obj. 490.008 iterations 177
Cbc0038I Pass 115: (6.37 seconds) suminf.    7.17796 (77) obj. 490.008 iterations 24
Cbc0038I Pass 116: (6.40 seconds) suminf.    3.91423 (68) obj. 490.008 iterations 205
Cbc0038I Pass 117: (6.42 seconds) suminf.    3.42267 (59) obj. 490.008 iterations 104
Cbc0038I Pass 118: (6.49 seconds) suminf.    3.32853 (41) obj. 490.008 iterations 458
Cbc0038I Pass 119: (6.50 seconds) suminf.    1.95276 (37) obj. 490.008 iterations 7
Cbc0038I Pass 120: (6.54 seconds) suminf.    3.10398 (52) obj. 490.008 iterations 279
Cbc0038I Pass 121: (6.62 seconds) suminf.    5.28998 (60) obj. 490.008 iterations 615
Cbc0038I Pass 122: (6.63 seconds) suminf.    5.28998 (60) obj. 490.008 iterations 22
Cbc0038I Pass 123: (6.66 seconds) suminf.    2.73241 (53) obj. 490.008 iterations 208
Cbc0038I Pass 124: (6.66 seconds) suminf.    2.73241 (53) obj. 490.008 iterations 15
Cbc0038I Pass 125: (6.75 seconds) suminf.    1.55788 (41) obj. 490.008 iterations 584
Cbc0038I Pass 126: (6.76 seconds) suminf.    1.44565 (29) obj. 490.008 iterations 23
Cbc0038I Pass 127: (6.77 seconds) suminf.    0.56562 (28) obj. 490.008 iterations 109
Cbc0038I Pass 128: (6.78 seconds) suminf.    0.56562 (28) obj. 490.008 iterations 24
Cbc0038I Pass 129: (6.81 seconds) suminf.    4.93024 (35) obj. 490.008 iterations 195
Cbc0038I Pass 130: (6.82 seconds) suminf.    4.20481 (47) obj. 490.008 iterations 35
Cbc0038I Pass 131: (6.87 seconds) suminf.    2.42122 (19) obj. 490.008 iterations 320
Cbc0038I Pass 132: (6.89 seconds) suminf.    1.91331 (13) obj. 490.008 iterations 65
Cbc0038I Pass 133: (7.15 seconds) suminf.    0.00761 (1) obj. 490.008 iterations 2090
Cbc0038I Solution found of 490.008
Cbc0038I Branch and bound needed to clear up 1 general integers
Cbc0038I Full problem 4765 rows 1627 columns, reduced to 0 rows 0 columns
Cbc0038I Cleaned solution of 458
Cbc0038I Before mini branch and bound, 397 integers at bound fixed and 0 continuous
Cbc0038I Full problem 4764 rows 1627 columns, reduced to 3950 rows 1230 columns - 530 fixed gives 601, 129 - ok now
Cbc0038I Full problem 4764 rows 1627 columns, reduced to 56 rows 24 columns
Cbc0038I Mini branch and bound did not improve solution (7.79 seconds)
Cbc0038I Round again with cutoff of 411.415
Cbc0038I Pass 134: (7.79 seconds) suminf.  128.28688 (599) obj. 326.473 iterations 0
Cbc0038I Pass 135: (7.97 seconds) suminf.   89.29145 (519) obj. 405.892 iterations 1109
Cbc0038I Pass 136: (8.09 seconds) suminf.   79.98495 (444) obj. 411.415 iterations 782
Cbc0038I Pass 137: (8.17 seconds) suminf.   70.60071 (434) obj. 411.415 iterations 507
Cbc0038I Pass 138: (8.23 seconds) suminf.   68.64345 (440) obj. 411.415 iterations 371
Cbc0038I Pass 139: (8.28 seconds) suminf.   69.16767 (438) obj. 411.415 iterations 265
Cbc0038I Pass 140: (8.33 seconds) suminf.   69.04887 (445) obj. 411.415 iterations 284
Cbc0038I Pass 141: (8.39 seconds) suminf.   67.43457 (419) obj. 411.415 iterations 346
Cbc0038I Pass 142: (8.45 seconds) suminf.   65.63450 (411) obj. 411.415 iterations 348
Cbc0038I Pass 143: (8.49 seconds) suminf.   63.72590 (427) obj. 411.415 iterations 211
Cbc0038I Pass 144: (8.50 seconds) suminf.   63.86589 (438) obj. 411.415 iterations 27
Cbc0038I Pass 145: (8.57 seconds) suminf.   60.72169 (369) obj. 411.415 iterations 414
Cbc0038I Pass 146: (8.58 seconds) suminf.   60.28383 (390) obj. 411.415 iterations 73
Cbc0038I Pass 147: (8.60 seconds) suminf.   60.28523 (372) obj. 411.415 iterations 70
Cbc0038I Pass 148: (8.65 seconds) suminf.   57.05544 (346) obj. 411.415 iterations 335
Cbc0038I Pass 149: (8.70 seconds) suminf.   55.41878 (358) obj. 411.415 iterations 344
Cbc0038I Pass 150: (8.75 seconds) suminf.   51.06470 (375) obj. 411.415 iterations 264
Cbc0038I Pass 151: (8.76 seconds) suminf.   50.98345 (373) obj. 411.415 iterations 46
Cbc0038I Pass 152: (8.81 seconds) suminf.   46.31125 (344) obj. 411.415 iterations 333
Cbc0038I Pass 153: (8.84 seconds) suminf.   43.53311 (346) obj. 411.415 iterations 159
Cbc0038I Pass 154: (8.90 seconds) suminf.   38.47898 (301) obj. 411.415 iterations 390
Cbc0038I Pass 155: (8.95 seconds) suminf.   34.36784 (295) obj. 411.415 iterations 321
Cbc0038I Pass 156: (8.99 seconds) suminf.   33.46899 (287) obj. 411.415 iterations 229
Cbc0038I Pass 157: (9.07 seconds) suminf.   33.11449 (288) obj. 411.415 iterations 581
Cbc0038I Pass 158: (9.11 seconds) suminf.   31.50965 (297) obj. 411.415 iterations 275
Cbc0038I Pass 159: (9.12 seconds) suminf.   31.06599 (305) obj. 411.415 iterations 49
Cbc0038I Pass 160: (9.13 seconds) suminf.   31.41720 (298) obj. 411.415 iterations 46
Cbc0038I Pass 161: (9.19 seconds) suminf.   32.74045 (246) obj. 411.415 iterations 448
Cbc0038I Pass 162: (9.21 seconds) suminf.   32.00970 (243) obj. 411.415 iterations 111
Cbc0038I Pass 163: (9.26 seconds) suminf.   28.88873 (277) obj. 411.415 iterations 321
Cbc0038I Pass 164: (9.28 seconds) suminf.   28.50154 (267) obj. 411.415 iterations 151
Cbc0038I Pass 165: (9.32 seconds) suminf.   25.75939 (271) obj. 411.415 iterations 221
Cbc0038I Pass 166: (9.35 seconds) suminf.   22.50216 (244) obj. 411.415 iterations 189
Cbc0038I Pass 167: (9.36 seconds) suminf.   21.23723 (232) obj. 411.415 iterations 54
Cbc0038I Pass 168: (9.42 seconds) suminf.   18.15693 (206) obj. 411.415 iterations 481
Cbc0038I Pass 169: (9.45 seconds) suminf.   14.57624 (201) obj. 411.415 iterations 169
Cbc0038I Pass 170: (9.47 seconds) suminf.   13.47682 (200) obj. 411.415 iterations 137
Cbc0038I Pass 171: (9.51 seconds) suminf.   15.50379 (150) obj. 411.415 iterations 302
Cbc0038I Pass 172: (9.53 seconds) suminf.   13.57644 (188) obj. 411.415 iterations 129
Cbc0038I Pass 173: (9.59 seconds) suminf.   13.39700 (152) obj. 411.415 iterations 512
Cbc0038I Pass 174: (9.61 seconds) suminf.   13.10115 (163) obj. 411.415 iterations 122
Cbc0038I Pass 175: (9.67 seconds) suminf.   12.95419 (172) obj. 411.415 iterations 537
Cbc0038I Pass 176: (9.69 seconds) suminf.   12.52443 (172) obj. 411.415 iterations 173
Cbc0038I Pass 177: (9.77 seconds) suminf.   17.56732 (156) obj. 411.415 iterations 715
Cbc0038I Pass 178: (9.79 seconds) suminf.   12.83456 (136) obj. 411.415 iterations 141
Cbc0038I Pass 179: (9.80 seconds) suminf.   12.83456 (136) obj. 411.415 iterations 7
Cbc0038I Pass 180: (9.85 seconds) suminf.   15.61773 (167) obj. 411.415 iterations 464
Cbc0038I Pass 181: (9.86 seconds) suminf.   15.69898 (168) obj. 411.415 iterations 87
Cbc0038I Pass 182: (9.93 seconds) suminf.   14.82305 (147) obj. 411.415 iterations 561
Cbc0038I Pass 183: (9.93 seconds) suminf.   13.70565 (144) obj. 411.415 iterations 9
Cbc0038I Pass 184: (9.96 seconds) suminf.   10.82861 (138) obj. 411.415 iterations 214
Cbc0038I Pass 185: (9.97 seconds) suminf.   10.68621 (136) obj. 411.415 iterations 28
Cbc0038I Pass 186: (10.03 seconds) suminf.   15.78790 (178) obj. 411.415 iterations 491
Cbc0038I Pass 187: (10.04 seconds) suminf.   15.11045 (181) obj. 411.415 iterations 123
Cbc0038I Pass 188: (10.13 seconds) suminf.   14.61678 (169) obj. 411.415 iterations 757
Cbc0038I Pass 189: (10.18 seconds) suminf.   14.32744 (141) obj. 411.415 iterations 403
Cbc0038I Pass 190: (10.24 seconds) suminf.   14.44976 (157) obj. 411.415 iterations 532
Cbc0038I Pass 191: (10.30 seconds) suminf.   13.80193 (136) obj. 411.415 iterations 397
Cbc0038I Pass 192: (10.34 seconds) suminf.   14.95353 (166) obj. 411.415 iterations 304
Cbc0038I Pass 193: (10.37 seconds) suminf.   14.78211 (186) obj. 411.415 iterations 232
Cbc0038I Pass 194: (10.48 seconds) suminf.   14.75996 (172) obj. 411.415 iterations 978
Cbc0038I Pass 195: (10.52 seconds) suminf.   13.37168 (187) obj. 411.415 iterations 295
Cbc0038I Pass 196: (10.53 seconds) suminf.   13.35395 (198) obj. 411.415 iterations 41
Cbc0038I Pass 197: (10.58 seconds) suminf.   15.54998 (185) obj. 411.415 iterations 375
Cbc0038I Pass 198: (10.60 seconds) suminf.   12.41056 (168) obj. 411.415 iterations 116
Cbc0038I Pass 199: (10.61 seconds) suminf.   12.36169 (170) obj. 411.415 iterations 55
Cbc0038I Pass 200: (10.75 seconds) suminf.   13.27650 (114) obj. 411.415 iterations 1213
Cbc0038I Pass 201: (10.84 seconds) suminf.    7.73249 (140) obj. 411.415 iterations 760
Cbc0038I Pass 202: (10.89 seconds) suminf.   12.20837 (117) obj. 411.415 iterations 322
Cbc0038I Pass 203: (10.98 seconds) suminf.   11.48522 (145) obj. 411.415 iterations 730
Cbc0038I Pass 204: (11.04 seconds) suminf.   13.07041 (123) obj. 411.415 iterations 479
Cbc0038I Pass 205: (11.08 seconds) suminf.    7.35861 (139) obj. 411.415 iterations 342
Cbc0038I Pass 206: (11.23 seconds) suminf.   19.54232 (145) obj. 411.415 iterations 1231
Cbc0038I Pass 207: (11.26 seconds) suminf.   11.77999 (105) obj. 411.415 iterations 179
Cbc0038I Pass 208: (11.28 seconds) suminf.   10.98692 (105) obj. 411.415 iterations 134
Cbc0038I Pass 209: (11.42 seconds) suminf.    6.02418 (74) obj. 411.415 iterations 1084
Cbc0038I Pass 210: (11.45 seconds) suminf.    5.99777 (88) obj. 411.415 iterations 215
Cbc0038I Pass 211: (11.47 seconds) suminf.    9.44637 (104) obj. 411.415 iterations 213
Cbc0038I Pass 212: (11.61 seconds) suminf.   64.62936 (361) obj. 411.415 iterations 1245
Cbc0038I Pass 213: (11.79 seconds) suminf.   24.72872 (172) obj. 411.415 iterations 1485
Cbc0038I Pass 214: (11.81 seconds) suminf.   24.20129 (173) obj. 411.415 iterations 60
Cbc0038I Pass 215: (11.85 seconds) suminf.   16.59898 (175) obj. 411.415 iterations 315
Cbc0038I Pass 216: (11.86 seconds) suminf.   16.59898 (175) obj. 411.415 iterations 5
Cbc0038I Pass 217: (11.91 seconds) suminf.   13.44003 (157) obj. 411.415 iterations 361
Cbc0038I Pass 218: (11.92 seconds) suminf.   13.31963 (158) obj. 411.415 iterations 40
Cbc0038I Pass 219: (11.94 seconds) suminf.   11.79957 (141) obj. 411.415 iterations 127
Cbc0038I Pass 220: (11.96 seconds) suminf.   11.01411 (124) obj. 411.415 iterations 174
Cbc0038I Pass 221: (12.00 seconds) suminf.    9.57410 (131) obj. 411.415 iterations 256
Cbc0038I Pass 222: (12.02 seconds) suminf.    9.09003 (126) obj. 411.415 iterations 107
Cbc0038I Pass 223: (12.05 seconds) suminf.    9.94940 (158) obj. 411.415 iterations 246
Cbc0038I Pass 224: (12.11 seconds) suminf.    9.35574 (128) obj. 411.415 iterations 450
Cbc0038I Pass 225: (12.16 seconds) suminf.   11.75565 (143) obj. 411.415 iterations 354
Cbc0038I Pass 226: (12.17 seconds) suminf.   11.61286 (152) obj. 411.415 iterations 42
Cbc0038I Pass 227: (12.21 seconds) suminf.   11.10092 (114) obj. 411.415 iterations 264
Cbc0038I Pass 228: (12.24 seconds) suminf.    6.68252 (124) obj. 411.415 iterations 220
Cbc0038I Pass 229: (12.25 seconds) suminf.    6.68318 (130) obj. 411.415 iterations 29
Cbc0038I Pass 230: (12.31 seconds) suminf.   13.04593 (113) obj. 411.415 iterations 405
Cbc0038I Pass 231: (12.34 seconds) suminf.   10.91222 (120) obj. 411.415 iterations 198
Cbc0038I Pass 232: (12.35 seconds) suminf.    8.78749 (121) obj. 411.415 iterations 103
Cbc0038I Pass 233: (12.49 seconds) suminf.   66.94655 (355) obj. 411.415 iterations 1127
Cbc0038I No solution found this major pass
Cbc0038I Before mini branch and bound, 277 integers at bound fixed and 0 continuous
Cbc0038I Full problem 4764 rows 1627 columns, reduced to 4195 rows 1350 columns - 534 fixed gives 728, 171 - ok now
Cbc0038I Mini branch and bound did not improve solution (13.05 seconds)
Cbc0038I After 13.05 seconds - Feasibility pump exiting with objective of 458 - took 11.87 seconds
Cbc0012I Integer solution of 458 found by feasibility pump after 0 iterations and 0 nodes (13.05 seconds)
Cbc0038I Full problem 4764 rows 1627 columns, reduced to 3308 rows 916 columns - 520 fixed gives 111, 37 - ok now
Cbc0031I 62 added rows had average density of 15.967742
Cbc0013I At root node, 62 cuts changed objective from 229.07522 to 250.03696 in 12 passes
Cbc0014I Cut generator 0 (Probing) - 156 row cuts average 13.7 elements, 2 column cuts (2 active)  in 0.116 seconds - new frequency is 1
Cbc0014I Cut generator 1 (Gomory) - 171 row cuts average 256.2 elements, 0 column cuts (0 active)  in 0.654 seconds - new frequency is 1
Cbc0014I Cut generator 2 (Knapsack) - 1 row cuts average 4.0 elements, 0 column cuts (0 active)  in 0.022 seconds - new frequency is -100
Cbc0014I Cut generator 3 (Clique) - 0 row cuts average 0.0 elements, 0 column cuts (0 active)  in 0.025 seconds - new frequency is -100
Cbc0014I Cut generator 4 (MixedIntegerRounding2) - 1 row cuts average 5.0 elements, 0 column cuts (0 active)  in 0.021 seconds - new frequency is -100
Cbc0014I Cut generator 5 (FlowCover) - 0 row cuts average 0.0 elements, 0 column cuts (0 active)  in 0.014 seconds - new frequency is -100
Cbc0014I Cut generator 6 (TwoMirCuts) - 318 row cuts average 20.3 elements, 0 column cuts (0 active)  in 0.238 seconds - new frequency is 1
Cbc0014I Cut generator 7 (ZeroHalf) - 210 row cuts average 31.7 elements, 0 column cuts (0 active)  in 0.566 seconds - new frequency is 1
Cbc0010I After 0 nodes, 1 on tree, 458 best solution, best possible 251 (26.68 seconds)
Cbc0038I Full problem 4764 rows 1627 columns, reduced to 3152 rows 884 columns - 485 fixed gives 44, 11 - ok now
Cbc0038I Full problem 4764 rows 1627 columns, reduced to 2880 rows 794 columns - 439 fixed gives 144, 41 - ok now
Cbc0010I After 100 nodes, 6 on tree, 458 best solution, best possible 254 (104.46 seconds)
Cbc0038I Full problem 4764 rows 1627 columns, reduced to 2745 rows 753 columns - 423 fixed gives 117, 35 - ok now
Cbc0010I After 200 nodes, 37 on tree, 458 best solution, best possible 255 (191.84 seconds)
Cbc0038I Full problem 4764 rows 1627 columns, reduced to 1356 rows 385 columns
Cbc0010I After 300 nodes, 51 on tree, 458 best solution, best possible 255 (259.72 seconds)
Cbc0038I Full problem 4764 rows 1627 columns, reduced to 2538 rows 752 columns - 348 fixed gives 22, 8 - ok now
Cbc0010I After 400 nodes, 54 on tree, 458 best solution, best possible 255 (334.29 seconds)
Cbc0038I Full problem 4764 rows 1627 columns, reduced to 1255 rows 350 columns
Cbc0010I After 500 nodes, 59 on tree, 458 best solution, best possible 255 (383.19 seconds)
Cbc0010I After 600 nodes, 56 on tree, 458 best solution, best possible 255 (440.80 seconds)
Cbc0038I Full problem 4764 rows 1627 columns, reduced to 1024 rows 306 columns
Cbc0010I After 700 nodes, 63 on tree, 458 best solution, best possible 255 (476.54 seconds)
Cbc0038I Full problem 4764 rows 1627 columns, reduced to 1343 rows 385 columns
Cbc0010I After 800 nodes, 62 on tree, 458 best solution, best possible 255 (524.36 seconds)
Cbc0038I Full problem 4764 rows 1627 columns, reduced to 1443 rows 430 columns
Cbc0010I After 900 nodes, 66 on tree, 458 best solution, best possible 255 (555.92 seconds)
Cbc0010I After 1000 nodes, 57 on tree, 458 best solution, best possible 255 (596.96 seconds)
Cbc0010I After 1100 nodes, 76 on tree, 458 best solution, best possible 255 (639.89 seconds)
Cbc0038I Full problem 4764 rows 1627 columns, reduced to 1506 rows 437 columns
Cbc0010I After 1200 nodes, 76 on tree, 458 best solution, best possible 255 (668.95 seconds)
Cbc0010I After 1300 nodes, 87 on tree, 458 best solution, best possible 255 (689.72 seconds)
Cbc0010I After 1400 nodes, 94 on tree, 458 best solution, best possible 255 (700.97 seconds)
Cbc0004I Integer solution of 325 found after 1821416 iterations and 1421 nodes (702.09 seconds)
Cbc0010I After 1500 nodes, 65 on tree, 325 best solution, best possible 255 (731.59 seconds)
Cbc0010I After 1600 nodes, 58 on tree, 325 best solution, best possible 255 (761.23 seconds)
Cbc0010I After 1700 nodes, 59 on tree, 325 best solution, best possible 255 (790.38 seconds)
Cbc0010I After 1800 nodes, 51 on tree, 325 best solution, best possible 255 (817.28 seconds)
Cbc0010I After 1900 nodes, 59 on tree, 325 best solution, best possible 255 (853.93 seconds)
Cbc0010I After 2000 nodes, 60 on tree, 325 best solution, best possible 255 (872.22 seconds)
Cbc0010I After 2100 nodes, 55 on tree, 325 best solution, best possible 255 (889.00 seconds)
Cbc0010I After 2200 nodes, 51 on tree, 325 best solution, best possible 255 (937.37 seconds)
Cbc0010I After 2300 nodes, 57 on tree, 325 best solution, best possible 255 (956.65 seconds)
Cbc0010I After 2400 nodes, 54 on tree, 325 best solution, best possible 255 (970.63 seconds)
Cbc0038I Full problem 4764 rows 1627 columns, reduced to 1611 rows 466 columns
Cbc0010I After 2500 nodes, 49 on tree, 325 best solution, best possible 255 (1005.48 seconds)
Cbc0010I After 2600 nodes, 62 on tree, 325 best solution, best possible 255 (1021.54 seconds)
Cbc0010I After 2700 nodes, 68 on tree, 325 best solution, best possible 255 (1028.89 seconds)
Cbc0010I After 2800 nodes, 55 on tree, 325 best solution, best possible 255 (1040.47 seconds)
Cbc0010I After 2900 nodes, 55 on tree, 325 best solution, best possible 255 (1052.57 seconds)
Cbc0038I Full problem 4764 rows 1627 columns, reduced to 2456 rows 714 columns - 247 fixed gives 863, 168 - ok now
Cbc0038I Full problem 4764 rows 1627 columns, reduced to 44 rows 16 columns
Cbc0012I Integer solution of 323 found by RINS after 2985041 iterations and 3000 nodes (1080.55 seconds)
Cbc0010I After 3000 nodes, 46 on tree, 323 best solution, best possible 255 (1080.55 seconds)
Cbc0010I After 3100 nodes, 53 on tree, 323 best solution, best possible 255 (1091.20 seconds)
Cbc0010I After 3200 nodes, 56 on tree, 323 best solution, best possible 255 (1106.21 seconds)
Cbc0010I After 3300 nodes, 53 on tree, 323 best solution, best possible 255 (1119.60 seconds)
Cbc0010I After 3400 nodes, 55 on tree, 323 best solution, best possible 255 (1134.91 seconds)
Cbc0010I After 3500 nodes, 59 on tree, 323 best solution, best possible 255 (1143.69 seconds)
Cbc0038I Full problem 4764 rows 1627 columns, reduced to 901 rows 255 columns
Cbc0010I After 3600 nodes, 61 on tree, 323 best solution, best possible 255 (1156.11 seconds)
Cbc0010I After 3700 nodes, 53 on tree, 323 best solution, best possible 255 (1174.53 seconds)
Cbc0010I After 3800 nodes, 52 on tree, 323 best solution, best possible 255 (1188.14 seconds)
Cbc0010I After 3900 nodes, 50 on tree, 323 best solution, best possible 255 (1202.51 seconds)
Cbc0010I After 4000 nodes, 53 on tree, 323 best solution, best possible 255 (1223.11 seconds)
Cbc0010I After 4100 nodes, 48 on tree, 323 best solution, best possible 255 (1234.77 seconds)
Cbc0038I Full problem 4764 rows 1627 columns, reduced to 1100 rows 301 columns
Cbc0010I After 4200 nodes, 54 on tree, 323 best solution, best possible 255 (1250.11 seconds)
Cbc0010I After 4300 nodes, 53 on tree, 323 best solution, best possible 255 (1263.98 seconds)
Cbc0010I After 4400 nodes, 49 on tree, 323 best solution, best possible 255 (1279.17 seconds)
Cbc0010I After 4500 nodes, 46 on tree, 323 best solution, best possible 255 (1298.28 seconds)
Cbc0010I After 4600 nodes, 50 on tree, 323 best solution, best possible 255 (1312.51 seconds)
Cbc0010I After 4700 nodes, 54 on tree, 323 best solution, best possible 255 (1325.13 seconds)
Cbc0010I After 4800 nodes, 52 on tree, 323 best solution, best possible 255 (1336.80 seconds)
Cbc0010I After 4900 nodes, 48 on tree, 323 best solution, best possible 255 (1345.82 seconds)
Cbc0010I After 5000 nodes, 43 on tree, 323 best solution, best possible 255 (1360.64 seconds)
Cbc0010I After 5100 nodes, 55 on tree, 323 best solution, best possible 255 (1408.63 seconds)
Cbc0010I After 5200 nodes, 74 on tree, 323 best solution, best possible 255 (1423.01 seconds)
Cbc0004I Integer solution of 322 found after 4271078 iterations and 5292 nodes (1435.38 seconds)
Cbc0010I After 5300 nodes, 42 on tree, 322 best solution, best possible 255 (1442.61 seconds)
Cbc0038I Full problem 4764 rows 1627 columns, reduced to 1591 rows 458 columns
Cbc0010I After 5400 nodes, 68 on tree, 322 best solution, best possible 255 (1457.59 seconds)
Cbc0010I After 5500 nodes, 59 on tree, 322 best solution, best possible 255 (1469.40 seconds)
Cbc0010I After 5600 nodes, 58 on tree, 322 best solution, best possible 255 (1482.25 seconds)
Cbc0010I After 5700 nodes, 51 on tree, 322 best solution, best possible 255 (1503.12 seconds)
Cbc0010I After 5800 nodes, 54 on tree, 322 best solution, best possible 255 (1523.07 seconds)
Cbc0010I After 5900 nodes, 57 on tree, 322 best solution, best possible 255 (1534.68 seconds)
Cbc0010I After 6000 nodes, 55 on tree, 322 best solution, best possible 255 (1547.17 seconds)
Cbc0010I After 6100 nodes, 55 on tree, 322 best solution, best possible 255 (1556.96 seconds)
Cbc0010I After 6200 nodes, 56 on tree, 322 best solution, best possible 255 (1563.75 seconds)
Cbc0010I After 6300 nodes, 53 on tree, 322 best solution, best possible 255 (1578.37 seconds)
Cbc0010I After 6400 nodes, 54 on tree, 322 best solution, best possible 255 (1600.52 seconds)
Cbc0010I After 6500 nodes, 52 on tree, 322 best solution, best possible 255 (1616.65 seconds)
Cbc0010I After 6600 nodes, 52 on tree, 322 best solution, best possible 255 (1639.56 seconds)
Cbc0038I Full problem 4764 rows 1627 columns, reduced to 2522 rows 755 columns - 237 fixed gives 855, 216 - ok now
Cbc0038I Full problem 4764 rows 1627 columns, reduced to 202 rows 67 columns
Cbc0010I After 6700 nodes, 58 on tree, 322 best solution, best possible 255 (1647.22 seconds)
Cbc0010I After 6800 nodes, 52 on tree, 322 best solution, best possible 255 (1659.25 seconds)
Cbc0010I After 6900 nodes, 53 on tree, 322 best solution, best possible 255 (1667.61 seconds)
Cbc0010I After 7000 nodes, 55 on tree, 322 best solution, best possible 255 (1681.76 seconds)
Cbc0010I After 7100 nodes, 59 on tree, 322 best solution, best possible 255 (1697.10 seconds)
Cbc0038I Full problem 4764 rows 1627 columns, reduced to 1208 rows 337 columns
Cbc0010I After 7200 nodes, 51 on tree, 322 best solution, best possible 255 (1708.84 seconds)
Cbc0010I After 7300 nodes, 50 on tree, 322 best solution, best possible 255 (1721.45 seconds)
Cbc0010I After 7400 nodes, 51 on tree, 322 best solution, best possible 255 (1740.62 seconds)
Cbc0010I After 7500 nodes, 55 on tree, 322 best solution, best possible 255 (1755.90 seconds)
Cbc0010I After 7600 nodes, 57 on tree, 322 best solution, best possible 255 (1772.50 seconds)
Cbc0010I After 7700 nodes, 52 on tree, 322 best solution, best possible 255 (1790.19 seconds)
Cbc0020I Exiting on maximum time
Cbc0005I Partial search - best objective 322 (best possible 255), took 5640413 iterations and 7753 nodes (1799.42 seconds)
Cbc0032I Strong branching done 30894 times (2246512 iterations), fathomed 549 nodes and fixed 4330 variables
Cbc0035I Maximum depth 148, 0 variables fixed on reduced cost
Cuts at root node changed objective from 229.075 to 251
Probing was tried 1482 times and created 226444 cuts of which 0 were active after adding rounds of cuts (8.939 seconds)
Gomory was tried 794 times and created 1797 cuts of which 0 were active after adding rounds of cuts (5.507 seconds)
Knapsack was tried 12 times and created 1 cuts of which 0 were active after adding rounds of cuts (0.022 seconds)
Clique was tried 12 times and created 0 cuts of which 0 were active after adding rounds of cuts (0.025 seconds)
MixedIntegerRounding2 was tried 12 times and created 1 cuts of which 0 were active after adding rounds of cuts (0.021 seconds)
FlowCover was tried 12 times and created 0 cuts of which 0 were active after adding rounds of cuts (0.014 seconds)
TwoMirCuts was tried 794 times and created 15911 cuts of which 0 were active after adding rounds of cuts (2.244 seconds)
ZeroHalf was tried 794 times and created 1959 cuts of which 0 were active after adding rounds of cuts (27.489 seconds)

Result - Stopped on time limit

Objective value:                322.00000000
Lower bound:                    255.000
Gap:                            0.26
Enumerated nodes:               7753
Total iterations:               5640413
Time (CPU seconds):             1799.67
Time (Wallclock seconds):       1800.18

Total time (CPU seconds):       1799.68   (Wallclock seconds):       1800.19

